 &control
    calculation = 'vc-relax',
    verbosity = 'high'
    prefix = 'Ca'
    outdir = './work_presssure=80.0'
    pseudo_dir = '../pseudo/'
    tprnfor = .true.
    tstress = .true.
    nstep = 100
 /
 &system
    space_group = 225,
    origin_choice = 1,
    a = 5.50,
    nat = 1,
    ntyp = 1,
    ecutwfc = 35.0,
    ecutrho = 315.0,
    occupations = 'smearing',
    smearing = 'gaussian',
    degauss = 0.01,
 /
 &electrons
    mixing_beta = 0.4
    conv_thr = 1.0d-6
    electron_maxstep = 300
 /
 &ions
 /
 &cell
    press = 80.0
 /

ATOMIC_SPECIES
 Ca -1.0  Ca.pbe-nsp-van.UPF

ATOMIC_POSITIONS crystal_sg
 Ca 4a

K_POINTS (automatic)
  6 6 6 0 0 0

